(Cost-function, node_ordering) that gave the best result for SCI = (0, 3)
MST
Route #1: 76 38 62 9 130 50 118 127 16 126 11 78
Route #2: 102 68 14 58 132 6 138 27 81 120 80 22 51 32
Route #3: 139 18 110 133 25 95 67 13 134 55 47
Route #4: 57 23 69 7 61 114 99 43 86 97 96 24 98
Route #5: 77 1 70 116 28 31 82 140 113 26 8 60 112 48
Route #6: 46 119 101 3 121 115 36 85 35 20 131 83 2
Route #7: 100 59 84 128 29 129 53 21 79 74 34 75 105 30 104 49
Route #8: 108 37 63 144 12
Route #9: 17 145 147 142 148 87 150 141 135 143 109 4 149 146
Route #10: 92 42 65 93 64 19 94 88 40 136 41 66 111 56
Route #11: 137 44 107 52 15 45 91 72 33 124 123 90 5
Route #12: 10 54 39 89 117 73 106 125 122 71 103
Cost 1109.94
VALID solution
Total execution time = 12.1636 s
